 0 1            3 1            2 3            5 3            1 4            4 4            
 1 4            16 21          21 30          30 40          40 50          50 53          
 1 0            5 0            3 0            0 2            4 1            2 4            
 0 8            8 11           11 16          16 22          22 25          30 31          
 0 0            2 0            1 1            4 0            3 2            5 5            
 0 1            1 6            8 13           13 22          22 27          49 50          
 2 1            5 1            3 3            0 3            1 5            4 5            
 6 10           11 14          27 30          30 37          50 54          54 55          
 1 2            4 2            3 4            2 5            5 4            0 5            
 13 23          25 30          30 38          38 45          45 49          49 55          
 2 2            5 2            1 3            0 4            4 3            3 5            
 10 18          18 27          27 37          37 40          40 44          44 53          
*
